## ESCRT1 dimerization
## electrostatic interactions 

   pair_coeff    59    62   gauss/wall   ${EH}    18.00      0.90      30.0000
   pair_coeff    59    77   gauss/wall   ${EH}    12.75      0.90      30.0000
   pair_coeff    78    79   gauss/wall   ${EH}    15.70      0.90      30.0000
   pair_coeff    78    80   gauss/wall   ${EH}    17.44      0.90      30.0000
   pair_coeff    80    81   gauss/wall   ${EH}    12.75      0.90      30.0000
