    units      	   real      
    atom_style     full      
    pair_style     hybrid soft 25.0 gauss/wall 25.0
    bond_style     harmonic
    angle_style    harmonic	
    neighbor  	   10.0 bin
    neigh_modify   every 1 delay 1 check yes
    boundary 	   p p p
    processors 	   * * 1
    special_bonds  lj 0.0 1.0 1.0
    
