# MA: type 1-20
# linker1: type 21 (bond 56)
# CASP1: type 22-56
# linker2: type 57 (bond 187)
# NC: type 58-68
# p6: type 69 (bond 211)
 
pair_coeff  *  *   soft   25.0   9.0

   pair_coeff   1  1    soft    25.0000       9.0000   
   pair_coeff   1  2    soft    25.0000       9.0000   
   pair_coeff   1  3    soft    25.0000       9.0000   
   pair_coeff   1  4    soft    25.0000       9.0000   
   pair_coeff   1  5    soft    25.0000       9.0000   
   pair_coeff   1  6    soft    25.0000       9.0000   
   pair_coeff   1  7    soft    25.0000       9.0000   
   pair_coeff   1  8    soft    25.0000       9.0000   
   pair_coeff   1  9    soft    25.0000       9.0000   
   pair_coeff   1  10    soft    25.0000       9.0000   
   pair_coeff   1  11    soft    25.0000       9.0000   
   pair_coeff   1  12    soft    25.0000       9.0000   
   pair_coeff   1  13    soft    25.0000       9.0000   
   pair_coeff   1  14    soft    25.0000       9.0000   
   pair_coeff   1  15    soft    25.0000       9.0000   
   pair_coeff   1  16    soft    25.0000       9.0000   
   pair_coeff   1  17    soft    25.0000       9.0000   
   pair_coeff   1  18    soft    25.0000       9.0000   
   pair_coeff   1  19    soft    25.0000       9.0000   
   pair_coeff   1  20    soft    25.0000       9.0000   
   pair_coeff   2  2    soft    25.0000       9.0000   
   pair_coeff   2  3    soft    25.0000       9.0000   
   pair_coeff   2  4    soft    25.0000       9.0000   
   pair_coeff   2  5    soft    25.0000       9.0000   
   pair_coeff   2  6    soft    25.0000       9.0000   
   pair_coeff   2  7    soft    25.0000       9.0000   
   pair_coeff   2  8    soft    25.0000       9.0000   
   pair_coeff   2  9    soft    25.0000       9.0000   
   pair_coeff   2  10    soft    25.0000       9.0000   
   pair_coeff   2  11    soft    25.0000       9.0000   
   pair_coeff   2  12    soft    25.0000       9.0000   
   pair_coeff   2  13    soft    25.0000       9.0000   
   pair_coeff   2  14    soft    25.0000       9.0000   
   pair_coeff   2  15    soft    25.0000       9.0000   
   pair_coeff   2  16    soft    25.0000       9.0000   
   pair_coeff   2  17    soft    25.0000       9.0000   
   pair_coeff   2  18    soft    25.0000       9.0000   
   pair_coeff   2  19    soft    25.0000       9.0000   
   pair_coeff   2  20    soft    25.0000       9.0000   
   pair_coeff   3  3    soft    25.0000       9.0000   
   pair_coeff   3  4    soft    25.0000       9.0000   
   pair_coeff   3  5    soft    25.0000       9.0000   
   pair_coeff   3  6    soft    25.0000       9.0000   
   pair_coeff   3  7    soft    25.0000       9.0000   
   pair_coeff   3  8    soft    25.0000       9.0000   
   pair_coeff   3  9    soft    25.0000       9.0000   
   pair_coeff   3  10    soft    25.0000       9.0000   
   pair_coeff   3  11    soft    25.0000       9.0000   
   pair_coeff   3  12    soft    25.0000       9.0000   
   pair_coeff   3  13    soft    25.0000       9.0000   
   pair_coeff   3  14    soft    25.0000       9.0000   
   pair_coeff   3  15    soft    25.0000       9.0000   
   pair_coeff   3  16    soft    25.0000       9.0000   
   pair_coeff   3  17    soft    25.0000       9.0000   
   pair_coeff   3  18    soft    25.0000       9.0000   
   pair_coeff   3  19    soft    25.0000       9.0000   
   pair_coeff   3  20    soft    25.0000       9.0000   
   pair_coeff   4  4    soft    25.0000       9.0000   
   pair_coeff   4  5    soft    25.0000       9.0000   
   pair_coeff   4  6    soft    25.0000       9.0000   
   pair_coeff   4  7    soft    25.0000       9.0000   
   pair_coeff   4  8    soft    25.0000       9.0000   
   pair_coeff   4  9    soft    25.0000       9.0000   
   pair_coeff   4  10    soft    25.0000       9.0000   
   pair_coeff   4  11    soft    25.0000       9.0000   
   pair_coeff   4  12    soft    25.0000       9.0000   
   pair_coeff   4  13    soft    25.0000       9.0000   
   pair_coeff   4  14    soft    25.0000       9.0000   
   pair_coeff   4  15    soft    25.0000       9.0000   
   pair_coeff   4  16    soft    25.0000       9.0000   
   pair_coeff   4  17    soft    25.0000       9.0000   
   pair_coeff   4  18    soft    25.0000       9.0000   
   pair_coeff   4  19    soft    25.0000       9.0000   
   pair_coeff   4  20    soft    25.0000       9.0000   
   pair_coeff   5  5    soft    25.0000       9.0000   
   pair_coeff   5  6    soft    25.0000       9.0000   
   pair_coeff   5  7    soft    25.0000       9.0000   
   pair_coeff   5  8    soft    25.0000       9.0000   
   pair_coeff   5  9    soft    25.0000       9.0000   
   pair_coeff   5  10    soft    25.0000       9.0000   
   pair_coeff   5  11    soft    25.0000       9.0000   
   pair_coeff   5  12    soft    25.0000       9.0000   
   pair_coeff   5  13    soft    25.0000       9.0000   
   pair_coeff   5  14    soft    25.0000       9.0000   
   pair_coeff   5  15    soft    25.0000       9.0000   
   pair_coeff   5  16    soft    25.0000       9.0000   
   pair_coeff   5  17    soft    25.0000       9.0000   
   pair_coeff   5  18    soft    25.0000       9.0000   
   pair_coeff   5  19    soft    25.0000       9.0000   
   pair_coeff   5  20    soft    25.0000       9.0000   
   pair_coeff   6  6    soft    25.0000       9.0000   
   pair_coeff   6  7    soft    25.0000       9.0000   
   pair_coeff   6  8    soft    25.0000       9.0000   
   pair_coeff   6  9    soft    25.0000       9.0000   
   pair_coeff   6  10    soft    25.0000       9.0000   
   pair_coeff   6  11    soft    25.0000       9.0000   
   pair_coeff   6  12    soft    25.0000       9.0000   
   pair_coeff   6  13    soft    25.0000       9.0000   
   pair_coeff   6  14    soft    25.0000       9.0000   
   pair_coeff   6  15    soft    25.0000       9.0000   
   pair_coeff   6  16    soft    25.0000       9.0000   
   pair_coeff   6  17    soft    25.0000       9.0000   
   pair_coeff   6  18    soft    25.0000       9.0000   
   pair_coeff   6  19    soft    25.0000       9.0000   
   pair_coeff   6  20    soft    25.0000       9.0000   
   pair_coeff   7  7    soft    25.0000       9.0000   
   pair_coeff   7  8    soft    25.0000       9.0000   
   pair_coeff   7  9    soft    25.0000       9.0000   
   pair_coeff   7  10    soft    25.0000       9.0000   
   pair_coeff   7  11    soft    25.0000       9.0000   
   pair_coeff   7  12    soft    25.0000       9.0000   
   pair_coeff   7  13    soft    25.0000       9.0000   
   pair_coeff   7  14    soft    25.0000       9.0000   
   pair_coeff   7  15    soft    25.0000       9.0000   
   pair_coeff   7  16    soft    25.0000       9.0000   
   pair_coeff   7  17    soft    25.0000       9.0000   
   pair_coeff   7  18    soft    25.0000       9.0000   
   pair_coeff   7  19    soft    25.0000       9.0000   
   pair_coeff   7  20    soft    25.0000       9.0000   
   pair_coeff   8  8    soft    25.0000       9.0000   
   pair_coeff   8  9    soft    25.0000       9.0000   
   pair_coeff   8  10    soft    25.0000       9.0000   
   pair_coeff   8  11    soft    25.0000       9.0000   
   pair_coeff   8  12    soft    25.0000       9.0000   
   pair_coeff   8  13    soft    25.0000       9.0000   
   pair_coeff   8  14    soft    25.0000       9.0000   
   pair_coeff   8  15    soft    25.0000       9.0000   
   pair_coeff   8  16    soft    25.0000       9.0000   
   pair_coeff   8  17    soft    25.0000       9.0000   
   pair_coeff   8  18    soft    25.0000       9.0000   
   pair_coeff   8  19    soft    25.0000       9.0000   
   pair_coeff   8  20    soft    25.0000       9.0000   
   pair_coeff   9  9    soft    25.0000       9.0000   
   pair_coeff   9  10    soft    25.0000       9.0000   
   pair_coeff   9  11    soft    25.0000       9.0000   
   pair_coeff   9  12    soft    25.0000       9.0000   
   pair_coeff   9  13    soft    25.0000       9.0000   
   pair_coeff   9  14    soft    25.0000       9.0000   
   pair_coeff   9  15    soft    25.0000       9.0000   
   pair_coeff   9  16    soft    25.0000       9.0000   
   pair_coeff   9  17    soft    25.0000       9.0000   
   pair_coeff   9  18    soft    25.0000       9.0000   
   pair_coeff   9  19    soft    25.0000       9.0000   
   pair_coeff   9  20    soft    25.0000       9.0000   
   pair_coeff   10  10    soft    25.0000       9.0000   
   pair_coeff   10  11    soft    25.0000       9.0000   
   pair_coeff   10  12    soft    25.0000       9.0000   
   pair_coeff   10  13    soft    25.0000       9.0000   
   pair_coeff   10  14    soft    25.0000       9.0000   
   pair_coeff   10  15    soft    25.0000       9.0000   
   pair_coeff   10  16    soft    25.0000       9.0000   
   pair_coeff   10  17    soft    25.0000       9.0000   
   pair_coeff   10  18    soft    25.0000       9.0000   
   pair_coeff   10  19    soft    25.0000       9.0000   
   pair_coeff   10  20    soft    25.0000       9.0000   
   pair_coeff   11  11    soft    25.0000       9.0000   
   pair_coeff   11  12    soft    25.0000       9.0000   
   pair_coeff   11  13    soft    25.0000       9.0000   
   pair_coeff   11  14    soft    25.0000       9.0000   
   pair_coeff   11  15    soft    25.0000       9.0000   
   pair_coeff   11  16    soft    25.0000       9.0000   
   pair_coeff   11  17    soft    25.0000       9.0000   
   pair_coeff   11  18    soft    25.0000       9.0000   
   pair_coeff   11  19    soft    25.0000       9.0000   
   pair_coeff   11  20    soft    25.0000       9.0000   
   pair_coeff   12  12    soft    25.0000       9.0000   
   pair_coeff   12  13    soft    25.0000       9.0000   
   pair_coeff   12  14    soft    25.0000       9.0000   
   pair_coeff   12  15    soft    25.0000       9.0000   
   pair_coeff   12  16    soft    25.0000       9.0000   
   pair_coeff   12  17    soft    25.0000       9.0000   
   pair_coeff   12  18    soft    25.0000       9.0000   
   pair_coeff   12  19    soft    25.0000       9.0000   
   pair_coeff   12  20    soft    25.0000       9.0000   
   pair_coeff   13  13    soft    25.0000       9.0000   
   pair_coeff   13  14    soft    25.0000       9.0000   
   pair_coeff   13  15    soft    25.0000       9.0000   
   pair_coeff   13  16    soft    25.0000       9.0000   
   pair_coeff   13  17    soft    25.0000       9.0000   
   pair_coeff   13  18    soft    25.0000       9.0000   
   pair_coeff   13  19    soft    25.0000       9.0000   
   pair_coeff   13  20    soft    25.0000       9.0000   
   pair_coeff   14  14    soft    25.0000       9.0000   
   pair_coeff   14  15    soft    25.0000       9.0000   
   pair_coeff   14  16    soft    25.0000       9.0000   
   pair_coeff   14  17    soft    25.0000       9.0000   
   pair_coeff   14  18    soft    25.0000       9.0000   
   pair_coeff   14  19    soft    25.0000       9.0000   
   pair_coeff   14  20    soft    25.0000       9.0000   
   pair_coeff   15  15    soft    25.0000       9.0000   
   pair_coeff   15  16    soft    25.0000       9.0000   
   pair_coeff   15  17    soft    25.0000       9.0000   
   pair_coeff   15  18    soft    25.0000       9.0000   
   pair_coeff   15  19    soft    25.0000       9.0000   
   pair_coeff   15  20    soft    25.0000       9.0000   
   pair_coeff   16  16    soft    25.0000       9.0000   
   pair_coeff   16  17    soft    25.0000       9.0000   
   pair_coeff   16  18    soft    25.0000       9.0000   
   pair_coeff   16  19    soft    25.0000       9.0000   
   pair_coeff   16  20    soft    25.0000       9.0000   
   pair_coeff   17  17    soft    25.0000       9.0000   
   pair_coeff   17  18    soft    25.0000       9.0000   
   pair_coeff   17  19    soft    25.0000       9.0000   
   pair_coeff   17  20    soft    25.0000       9.0000   
   pair_coeff   18  18    soft    25.0000       9.0000   
   pair_coeff   18  19    soft    25.0000       9.0000   
   pair_coeff   18  20    soft    25.0000       9.0000   
   pair_coeff   19  19    soft    25.0000       9.0000   
   pair_coeff   19  20    soft    25.0000       9.0000   
   pair_coeff   20  20    soft    25.0000       9.0000   

   pair_coeff   21  21    soft    25.0000      12.00   

   pair_coeff   22  22    soft    25.0000       8.6793   
   pair_coeff   22  23    soft    25.0000      13.1254   
   pair_coeff   22  24    soft    25.0000      20.8057   
   pair_coeff   22  25    soft    25.0000      18.6517   
   pair_coeff   22  26    soft    25.0000      15.3017   
   pair_coeff   22  27    soft    25.0000       9.7452   
   pair_coeff   22  28    soft    25.0000      17.1707   
   pair_coeff   22  29    soft    25.0000      15.1745   
   pair_coeff   22  30    soft    25.0000      12.0211   
   pair_coeff   22  31    soft    25.0000      19.2517   
   pair_coeff   22  32    soft    25.0000      22.5000   
   pair_coeff   22  33    soft    25.0000      22.5000   
   pair_coeff   22  34    soft    25.0000      22.5000   
   pair_coeff   22  35    soft    25.0000      18.7502   
   pair_coeff   22  36    soft    25.0000      18.4168   
   pair_coeff   22  37    soft    25.0000      18.8698   
   pair_coeff   22  38    soft    25.0000      20.4504   
   pair_coeff   22  39    soft    25.0000      21.5209   
   pair_coeff   22  40    soft    25.0000      13.5370   
   pair_coeff   22  41    soft    25.0000      11.8733   
   pair_coeff   22  42    soft    25.0000      19.2756   
   pair_coeff   22  43    soft    25.0000      22.5000   
   pair_coeff   22  44    soft    25.0000      22.5000   
   pair_coeff   22  45    soft    25.0000      22.5000   
   pair_coeff   22  46    soft    25.0000      18.9152   
   pair_coeff   22  47    soft    25.0000      22.5000   
   pair_coeff   22  48    soft    25.0000      22.5000   
   pair_coeff   22  49    soft    25.0000      22.5000   
   pair_coeff   22  50    soft    25.0000      22.5000   
   pair_coeff   22  51    soft    25.0000      22.5000   
   pair_coeff   22  52    soft    25.0000      22.5000   
   pair_coeff   22  53    soft    25.0000      22.5000   
   pair_coeff   22  54    soft    25.0000      22.5000   
   pair_coeff   22  55    soft    25.0000      22.5000   
   pair_coeff   22  56    soft    25.0000      22.5000   
   pair_coeff   23  23    soft    25.0000      12.4264   
   pair_coeff   23  24    soft    25.0000      16.1185   
   pair_coeff   23  25    soft    25.0000      17.9264   
   pair_coeff   23  26    soft    25.0000      22.5000   
   pair_coeff   23  27    soft    25.0000      15.1007   
   pair_coeff   23  28    soft    25.0000      18.3593   
   pair_coeff   23  29    soft    25.0000      17.9213   
   pair_coeff   23  30    soft    25.0000      20.1037   
   pair_coeff   23  31    soft    25.0000      22.5000   
   pair_coeff   23  32    soft    25.0000      22.5000   
   pair_coeff   23  33    soft    25.0000      22.5000   
   pair_coeff   23  34    soft    25.0000      22.5000   
   pair_coeff   23  35    soft    25.0000      22.5000   
   pair_coeff   23  36    soft    25.0000      22.5000   
   pair_coeff   23  37    soft    25.0000      22.5000   
   pair_coeff   23  38    soft    25.0000      22.5000   
   pair_coeff   23  39    soft    25.0000      22.5000   
   pair_coeff   23  40    soft    25.0000      18.6960   
   pair_coeff   23  41    soft    25.0000      11.9390   
   pair_coeff   23  42    soft    25.0000      14.7541   
   pair_coeff   23  43    soft    25.0000      18.9043   
   pair_coeff   23  44    soft    25.0000      22.5000   
   pair_coeff   23  45    soft    25.0000      22.5000   
   pair_coeff   23  46    soft    25.0000      12.7689   
   pair_coeff   23  47    soft    25.0000      16.7371   
   pair_coeff   23  48    soft    25.0000      22.5000   
   pair_coeff   23  49    soft    25.0000      22.5000   
   pair_coeff   23  50    soft    25.0000      22.5000   
   pair_coeff   23  51    soft    25.0000      22.5000   
   pair_coeff   23  52    soft    25.0000      22.5000   
   pair_coeff   23  53    soft    25.0000      22.5000   
   pair_coeff   23  54    soft    25.0000      22.5000   
   pair_coeff   23  55    soft    25.0000      22.5000   
   pair_coeff   23  56    soft    25.0000      22.5000   
   pair_coeff   24  24    soft    25.0000      12.7972   
   pair_coeff   24  25    soft    25.0000      14.0751   
   pair_coeff   24  26    soft    25.0000      19.1224   
   pair_coeff   24  27    soft    25.0000      22.5000   
   pair_coeff   24  28    soft    25.0000      22.5000   
   pair_coeff   24  29    soft    25.0000      22.5000   
   pair_coeff   24  30    soft    25.0000      22.5000   
   pair_coeff   24  31    soft    25.0000      22.5000   
   pair_coeff   24  32    soft    25.0000      22.5000   
   pair_coeff   24  33    soft    25.0000      22.5000   
   pair_coeff   24  34    soft    25.0000      22.5000   
   pair_coeff   24  35    soft    25.0000      22.5000   
   pair_coeff   24  36    soft    25.0000      22.5000   
   pair_coeff   24  37    soft    25.0000      22.5000   
   pair_coeff   24  38    soft    25.0000      22.5000   
   pair_coeff   24  39    soft    25.0000      22.5000   
   pair_coeff   24  40    soft    25.0000      18.9797   
   pair_coeff   24  41    soft    25.0000      14.8996   
   pair_coeff   24  42    soft    25.0000      15.4055   
   pair_coeff   24  43    soft    25.0000      22.5000   
   pair_coeff   24  44    soft    25.0000      22.5000   
   pair_coeff   24  45    soft    25.0000      20.0405   
   pair_coeff   24  46    soft    25.0000      16.2083   
   pair_coeff   24  47    soft    25.0000      16.0317   
   pair_coeff   24  48    soft    25.0000      22.5000   
   pair_coeff   24  49    soft    25.0000      22.5000   
   pair_coeff   24  50    soft    25.0000      22.5000   
   pair_coeff   24  51    soft    25.0000      22.5000   
   pair_coeff   24  52    soft    25.0000      22.5000   
   pair_coeff   24  53    soft    25.0000      22.5000   
   pair_coeff   24  54    soft    25.0000      22.5000   
   pair_coeff   24  55    soft    25.0000      22.5000   
   pair_coeff   24  56    soft    25.0000      22.5000   
   pair_coeff   25  25    soft    25.0000       8.9799   
   pair_coeff   25  26    soft    25.0000      16.6970   
   pair_coeff   25  27    soft    25.0000      19.7189   
   pair_coeff   25  28    soft    25.0000      17.4243   
   pair_coeff   25  29    soft    25.0000      18.3534   
   pair_coeff   25  30    soft    25.0000      19.8689   
   pair_coeff   25  31    soft    25.0000      22.5000   
   pair_coeff   25  32    soft    25.0000      22.5000   
   pair_coeff   25  33    soft    25.0000      22.5000   
   pair_coeff   25  34    soft    25.0000      22.5000   
   pair_coeff   25  35    soft    25.0000      22.4437   
   pair_coeff   25  36    soft    25.0000      18.2517   
   pair_coeff   25  37    soft    25.0000      20.5242   
   pair_coeff   25  38    soft    25.0000      19.8420   
   pair_coeff   25  39    soft    25.0000      20.0789   
   pair_coeff   25  40    soft    25.0000      11.8236   
   pair_coeff   25  41    soft    25.0000      10.8313   
   pair_coeff   25  42    soft    25.0000      17.0152   
   pair_coeff   25  43    soft    25.0000      22.5000   
   pair_coeff   25  44    soft    25.0000      22.5000   
   pair_coeff   25  45    soft    25.0000      22.5000   
   pair_coeff   25  46    soft    25.0000      21.7798   
   pair_coeff   25  47    soft    25.0000      22.5000   
   pair_coeff   25  48    soft    25.0000      22.5000   
   pair_coeff   25  49    soft    25.0000      22.5000   
   pair_coeff   25  50    soft    25.0000      22.5000   
   pair_coeff   25  51    soft    25.0000      22.5000   
   pair_coeff   25  52    soft    25.0000      22.5000   
   pair_coeff   25  53    soft    25.0000      22.5000   
   pair_coeff   25  54    soft    25.0000      22.5000   
   pair_coeff   25  55    soft    25.0000      22.5000   
   pair_coeff   25  56    soft    25.0000      22.5000   
   pair_coeff   26  26    soft    25.0000      21.7526   
   pair_coeff   26  27    soft    25.0000      21.1395   
   pair_coeff   26  28    soft    25.0000      17.7236   
   pair_coeff   26  29    soft    25.0000      22.5000   
   pair_coeff   26  30    soft    25.0000      13.7499   
   pair_coeff   26  31    soft    25.0000      15.9366   
   pair_coeff   26  32    soft    25.0000      22.5000   
   pair_coeff   26  33    soft    25.0000      22.5000   
   pair_coeff   26  34    soft    25.0000      19.8499   
   pair_coeff   26  35    soft    25.0000      21.0905   
   pair_coeff   26  36    soft    25.0000      22.5000   
   pair_coeff   26  37    soft    25.0000      22.5000   
   pair_coeff   26  38    soft    25.0000      22.5000   
   pair_coeff   26  39    soft    25.0000      16.8370   
   pair_coeff   26  40    soft    25.0000      14.8973   
   pair_coeff   26  41    soft    25.0000      19.2471   
   pair_coeff   26  42    soft    25.0000      22.3696   
   pair_coeff   26  43    soft    25.0000      22.5000   
   pair_coeff   26  44    soft    25.0000      22.5000   
   pair_coeff   26  45    soft    25.0000      22.5000   
   pair_coeff   26  46    soft    25.0000      22.5000   
   pair_coeff   26  47    soft    25.0000      22.5000   
   pair_coeff   26  48    soft    25.0000      22.5000   
   pair_coeff   26  49    soft    25.0000      22.5000   
   pair_coeff   26  50    soft    25.0000      22.5000   
   pair_coeff   26  51    soft    25.0000      22.5000   
   pair_coeff   26  52    soft    25.0000      22.5000   
   pair_coeff   26  53    soft    25.0000      22.5000   
   pair_coeff   26  54    soft    25.0000      22.5000   
   pair_coeff   26  55    soft    25.0000      22.5000   
   pair_coeff   26  56    soft    25.0000      22.5000   
   pair_coeff   27  27    soft    25.0000      17.6646   
   pair_coeff   27  28    soft    25.0000      22.5000   
   pair_coeff   27  29    soft    25.0000      15.4225   
   pair_coeff   27  30    soft    25.0000      11.5329   
   pair_coeff   27  31    soft    25.0000      19.1017   
   pair_coeff   27  32    soft    25.0000      22.5000   
   pair_coeff   27  33    soft    25.0000      22.5000   
   pair_coeff   27  34    soft    25.0000      22.5000   
   pair_coeff   27  35    soft    25.0000      21.0384   
   pair_coeff   27  36    soft    25.0000      20.8072   
   pair_coeff   27  37    soft    25.0000      22.5000   
   pair_coeff   27  38    soft    25.0000      19.0689   
   pair_coeff   27  39    soft    25.0000      22.5000   
   pair_coeff   27  40    soft    25.0000      20.0734   
   pair_coeff   27  41    soft    25.0000      16.6305   
   pair_coeff   27  42    soft    25.0000      16.7907   
   pair_coeff   27  43    soft    25.0000      22.5000   
   pair_coeff   27  44    soft    25.0000      22.5000   
   pair_coeff   27  45    soft    25.0000      22.5000   
   pair_coeff   27  46    soft    25.0000      18.2903   
   pair_coeff   27  47    soft    25.0000      22.5000   
   pair_coeff   27  48    soft    25.0000      22.5000   
   pair_coeff   27  49    soft    25.0000      22.5000   
   pair_coeff   27  50    soft    25.0000      22.5000   
   pair_coeff   27  51    soft    25.0000      22.5000   
   pair_coeff   27  52    soft    25.0000      22.5000   
   pair_coeff   27  53    soft    25.0000      22.5000   
   pair_coeff   27  54    soft    25.0000      22.5000   
   pair_coeff   27  55    soft    25.0000      22.5000   
   pair_coeff   27  56    soft    25.0000      22.5000   
   pair_coeff   28  28    soft    25.0000      21.3517   
   pair_coeff   28  29    soft    25.0000      15.4611   
   pair_coeff   28  30    soft    25.0000      17.7055   
   pair_coeff   28  31    soft    25.0000      22.5000   
   pair_coeff   28  32    soft    25.0000      22.5000   
   pair_coeff   28  33    soft    25.0000      22.5000   
   pair_coeff   28  34    soft    25.0000      22.5000   
   pair_coeff   28  35    soft    25.0000      22.5000   
   pair_coeff   28  36    soft    25.0000      17.9973   
   pair_coeff   28  37    soft    25.0000      20.8439   
   pair_coeff   28  38    soft    25.0000      22.5000   
   pair_coeff   28  39    soft    25.0000      22.5000   
   pair_coeff   28  40    soft    25.0000      19.3047   
   pair_coeff   28  41    soft    25.0000      18.4856   
   pair_coeff   28  42    soft    25.0000      18.6019   
   pair_coeff   28  43    soft    25.0000      16.0479   
   pair_coeff   28  44    soft    25.0000      22.5000   
   pair_coeff   28  45    soft    25.0000      18.7111   
   pair_coeff   28  46    soft    25.0000      19.7499   
   pair_coeff   28  47    soft    25.0000      21.9625   
   pair_coeff   28  48    soft    25.0000      22.5000   
   pair_coeff   28  49    soft    25.0000      22.5000   
   pair_coeff   28  50    soft    25.0000      22.5000   
   pair_coeff   28  51    soft    25.0000      22.5000   
   pair_coeff   28  52    soft    25.0000      22.5000   
   pair_coeff   28  53    soft    25.0000      22.5000   
   pair_coeff   28  54    soft    25.0000      22.5000   
   pair_coeff   28  55    soft    25.0000      22.5000   
   pair_coeff   28  56    soft    25.0000      22.5000   
   pair_coeff   29  29    soft    25.0000      20.4104   
   pair_coeff   29  30    soft    25.0000      18.4207   
   pair_coeff   29  31    soft    25.0000      20.8986   
   pair_coeff   29  32    soft    25.0000      22.5000   
   pair_coeff   29  33    soft    25.0000      22.5000   
   pair_coeff   29  34    soft    25.0000      22.5000   
   pair_coeff   29  35    soft    25.0000      17.4659   
   pair_coeff   29  36    soft    25.0000      22.1013   
   pair_coeff   29  37    soft    25.0000      16.6479   
   pair_coeff   29  38    soft    25.0000      22.0911   
   pair_coeff   29  39    soft    25.0000      22.5000   
   pair_coeff   29  40    soft    25.0000      22.5000   
   pair_coeff   29  41    soft    25.0000      22.5000   
   pair_coeff   29  42    soft    25.0000      22.5000   
   pair_coeff   29  43    soft    25.0000      22.5000   
   pair_coeff   29  44    soft    25.0000      22.5000   
   pair_coeff   29  45    soft    25.0000      22.3385   
   pair_coeff   29  46    soft    25.0000      18.9367   
   pair_coeff   29  47    soft    25.0000      22.5000   
   pair_coeff   29  48    soft    25.0000      22.5000   
   pair_coeff   29  49    soft    25.0000      22.5000   
   pair_coeff   29  50    soft    25.0000      22.5000   
   pair_coeff   29  51    soft    25.0000      22.5000   
   pair_coeff   29  52    soft    25.0000      22.5000   
   pair_coeff   29  53    soft    25.0000      22.5000   
   pair_coeff   29  54    soft    25.0000      22.5000   
   pair_coeff   29  55    soft    25.0000      22.5000   
   pair_coeff   29  56    soft    25.0000      22.5000   
   pair_coeff   30  30    soft    25.0000      22.5000   
   pair_coeff   30  31    soft    25.0000      22.5000   
   pair_coeff   30  32    soft    25.0000      17.8299   
   pair_coeff   30  33    soft    25.0000      21.9959   
   pair_coeff   30  34    soft    25.0000      20.3690   
   pair_coeff   30  35    soft    25.0000      20.0391   
   pair_coeff   30  36    soft    25.0000      13.7451   
   pair_coeff   30  37    soft    25.0000      10.3352   
   pair_coeff   30  38    soft    25.0000      17.6769   
   pair_coeff   30  39    soft    25.0000      18.8672   
   pair_coeff   30  40    soft    25.0000      19.8496   
   pair_coeff   30  41    soft    25.0000      22.1839   
   pair_coeff   30  42    soft    25.0000      22.5000   
   pair_coeff   30  43    soft    25.0000      22.5000   
   pair_coeff   30  44    soft    25.0000      22.5000   
   pair_coeff   30  45    soft    25.0000      22.5000   
   pair_coeff   30  46    soft    25.0000      22.5000   
   pair_coeff   30  47    soft    25.0000      22.5000   
   pair_coeff   30  48    soft    25.0000      22.5000   
   pair_coeff   30  49    soft    25.0000      22.5000   
   pair_coeff   30  50    soft    25.0000      22.5000   
   pair_coeff   30  51    soft    25.0000      22.5000   
   pair_coeff   30  52    soft    25.0000      22.5000   
   pair_coeff   30  53    soft    25.0000      22.5000   
   pair_coeff   30  54    soft    25.0000      22.5000   
   pair_coeff   30  55    soft    25.0000      22.5000   
   pair_coeff   30  56    soft    25.0000      22.5000   
   pair_coeff   31  31    soft    25.0000      22.5000   
   pair_coeff   31  32    soft    25.0000      22.5000   
   pair_coeff   31  33    soft    25.0000      20.9626   
   pair_coeff   31  34    soft    25.0000      17.6640   
   pair_coeff   31  35    soft    25.0000      17.4843   
   pair_coeff   31  36    soft    25.0000      14.7858   
   pair_coeff   31  37    soft    25.0000       8.8196   
   pair_coeff   31  38    soft    25.0000      13.5213   
   pair_coeff   31  39    soft    25.0000      16.8479   
   pair_coeff   31  40    soft    25.0000      17.2691   
   pair_coeff   31  41    soft    25.0000      22.5000   
   pair_coeff   31  42    soft    25.0000      22.5000   
   pair_coeff   31  43    soft    25.0000      22.5000   
   pair_coeff   31  44    soft    25.0000      22.5000   
   pair_coeff   31  45    soft    25.0000      22.5000   
   pair_coeff   31  46    soft    25.0000      22.5000   
   pair_coeff   31  47    soft    25.0000      22.5000   
   pair_coeff   31  48    soft    25.0000      22.5000   
   pair_coeff   31  49    soft    25.0000      22.5000   
   pair_coeff   31  50    soft    25.0000      22.5000   
   pair_coeff   31  51    soft    25.0000      22.5000   
   pair_coeff   31  52    soft    25.0000      22.5000   
   pair_coeff   31  53    soft    25.0000      22.5000   
   pair_coeff   31  54    soft    25.0000      22.5000   
   pair_coeff   31  55    soft    25.0000      22.5000   
   pair_coeff   31  56    soft    25.0000      22.5000   
   pair_coeff   32  32    soft    25.0000      21.9028   