                units     real      
           atom_style     full      
           pair_style     hybrid soft 25.000000 gauss/wall 25.000000
           bond_style     harmonic  
	   neighbor  	  10.0 bin
	   neigh_modify   every 1 delay 1 check yes
	   boundary 	  p p f
	   processors  	  * * *
	   special_bonds  lj 0.0 1.0 1.0
	   
