###### volume exclusion interactions #############################
pair_coeff  1*3    4*225  soft  25.000  12.000
pair_coeff  4*225  4*225  soft  25.000  15.000

###################################################################

bond_coeff     3    0.4510   5.8400
bond_coeff     4    0.0578  12.0093
bond_coeff     5    0.0060  18.7364
bond_coeff     6    0.0016  21.3569
bond_coeff     7    0.0017  25.5723
bond_coeff     8    0.0014  28.1926
bond_coeff     9    0.0006  27.1131
bond_coeff    10    0.0004  24.9822
bond_coeff    11    0.0003  24.9793
bond_coeff    12    0.0001  28.5226
bond_coeff    13    0.0003  29.5252
bond_coeff    14    0.0006  28.7731
bond_coeff    15    0.0042  29.0086
bond_coeff    16    0.0029  24.5674
bond_coeff    17    0.0006  17.3156
bond_coeff    18    0.0011  13.8505
bond_coeff    19    0.0003  12.9258
bond_coeff    20    0.0003  14.5330
bond_coeff    21    0.0003  20.8237
bond_coeff    22    0.0005  22.4773
bond_coeff    23    0.0004  22.8563
bond_coeff    24    0.0003  26.5595
bond_coeff    25    0.0001  24.9476
bond_coeff    26    0.0002  22.7967
bond_coeff    27    0.0003  28.3758
bond_coeff    28    0.0003  18.2087
bond_coeff    29    0.0003  14.2789
bond_coeff    30    0.0003  17.7408
bond_coeff    31    0.0003  22.4964
bond_coeff    32    0.0003  19.3291
bond_coeff    33    0.0001  15.6951
bond_coeff    34    0.0002  22.0237
bond_coeff    35    0.0002  21.9681
bond_coeff    36    0.0002  21.4885
bond_coeff    37    0.0001  22.1756
bond_coeff    38    0.0001  26.7451
bond_coeff    39    0.0001  29.9794
bond_coeff    40    0.0001  28.5553
bond_coeff    41    0.0083  26.8080
bond_coeff    42    0.0003  20.3420
bond_coeff    43    0.0001  18.3789
bond_coeff    44    0.0001  21.2518
bond_coeff    45    0.0001  26.7338
bond_coeff    46    0.0001  27.4352
bond_coeff    47    0.0001  20.8251
bond_coeff    48    0.0001  16.5389
bond_coeff    49    0.0001  21.9892
bond_coeff    50    0.0001  26.7906
bond_coeff    51    0.0003  25.9890
bond_coeff    52    0.0003  26.3304
bond_coeff    53    0.8749   7.7941
bond_coeff    54    0.0044  14.9210
bond_coeff    55    0.0024  18.4794
bond_coeff    56    0.0024  23.5729
bond_coeff    57    0.0026  26.3830
bond_coeff    58    0.0046  25.4486
bond_coeff    59    0.0036  23.6469
bond_coeff    60    0.0039  23.4130
bond_coeff    61    0.0021  28.2459
bond_coeff    62    0.0042  29.3248
bond_coeff    63    0.0057  28.4275
bond_coeff    64    0.0107  28.5504
bond_coeff    65    0.0037  24.4444
bond_coeff    66    0.0016  16.2955
bond_coeff    67    0.0054  11.9724
bond_coeff    68    0.0026  11.8566
bond_coeff    69    0.0047  16.0049
bond_coeff    70    0.0058  21.7650
bond_coeff    71    0.0432  23.2386
bond_coeff    72    0.0030  24.6278
bond_coeff    73    0.0014  28.9738
bond_coeff    74    0.0007  27.3071
bond_coeff    75    0.0007  24.3347
bond_coeff    76    0.0010  28.8554
bond_coeff    77    0.0010  18.8808
bond_coeff    78    0.0013  16.0952
bond_coeff    79    0.0028  20.3207
bond_coeff    80    0.0037  25.4954
bond_coeff    81    0.0013  22.1431
bond_coeff    82    0.0005  17.2407
bond_coeff    83    0.0009  24.7238
bond_coeff    84    0.0009  24.7664
bond_coeff    85    0.0008  23.2038
bond_coeff    86    0.0004  23.4047
bond_coeff    87    0.0003  27.8764
bond_coeff    88    0.0031  29.3378
bond_coeff    89    0.0635  23.8229
bond_coeff    90    0.0024  17.3518
bond_coeff    91    0.0006  16.7194
bond_coeff    92    0.0004  21.4001
bond_coeff    93    0.0003  27.3533
bond_coeff    94    0.0008  28.4509
bond_coeff    95    0.0013  21.7245
bond_coeff    96    0.0017  18.4153
bond_coeff    97    0.0013  23.8649
bond_coeff    98    0.0008  28.6621
bond_coeff    99    0.0088  28.2887
bond_coeff   100    0.0069  29.1014
bond_coeff   101    0.2485   8.9903
bond_coeff   102    0.0389  13.1928
bond_coeff   103    0.0085  18.4900
bond_coeff   104    0.0030  20.4723
bond_coeff   105    0.0019  19.3254
bond_coeff   106    0.0015  18.0425
bond_coeff   107    0.0018  17.6167
bond_coeff   108    0.0037  24.3909
bond_coeff   109    0.0029  26.8783
bond_coeff   110    0.0033  25.1372
bond_coeff   111    0.0054  24.2417
bond_coeff   112    0.0080  24.7388
bond_coeff   113    0.0118  22.5132
bond_coeff   114    0.0164  14.5108
bond_coeff   115    0.0932   8.4617
bond_coeff   116    0.3266   9.2442
bond_coeff   117    0.0969  17.1824
bond_coeff   118    0.0315  20.5321
bond_coeff   119    0.0240  21.7179
bond_coeff   120    0.0245  25.7158
bond_coeff   121    0.0076  27.6194
bond_coeff   122    0.0157  29.2960
bond_coeff   123    0.0129  20.2173
bond_coeff   124    0.0168  19.1748
bond_coeff   125    0.0214  23.9118
bond_coeff   126    0.0153  29.5866
bond_coeff   127    0.0073  27.8451
bond_coeff   128    0.0040  23.1130
bond_coeff   129    0.0026  29.8002
bond_coeff   130    0.0067  23.3220
bond_coeff   131    0.0291  16.8011
bond_coeff   132    0.2668  10.1698
bond_coeff   133    0.1203  12.3471
bond_coeff   134    0.0432  20.2237
bond_coeff   135    0.0059  26.4081
bond_coeff   136    0.0132  27.0957
bond_coeff   137    0.0398  20.5033
bond_coeff   138    0.0440  20.5705
bond_coeff   139    0.0541  25.3574
bond_coeff   140    0.0106  29.8973
bond_coeff   141    0.0106  29.5697
bond_coeff   142    2.8552   5.9506
bond_coeff   143    0.9824  12.5984
bond_coeff   144    0.0600  16.4207
bond_coeff   145    0.0083  18.5013
bond_coeff   146    0.0053  19.2308
bond_coeff   147    0.0050  19.7362
bond_coeff   148    0.0094  28.5015
bond_coeff   149    0.0059  29.5312
bond_coeff   150    0.0107  26.4535
bond_coeff   151    0.1178  23.7753
bond_coeff   152    0.0707  22.3036
bond_coeff   153    0.1966  20.2025
bond_coeff   154    0.1140  12.7734
bond_coeff   155    0.0508  10.4261
bond_coeff   156    0.2819  15.5685
bond_coeff   157    0.0336  22.8006
bond_coeff   158    0.0147  24.3658
bond_coeff   159    0.0079  23.5331
bond_coeff   160    0.0086  27.6122
bond_coeff   161    0.0089  28.0869
bond_coeff   162    0.0210  26.6564
bond_coeff   163    0.0269  20.1650
bond_coeff   164    0.0203  22.3689
bond_coeff   165    0.0128  28.3351
bond_coeff   166    0.0074  26.4090
bond_coeff   167    0.0129  27.6338
bond_coeff   168    0.0027  29.9291
bond_coeff   169    0.0135  28.7466
bond_coeff   170    0.0260  15.3668
bond_coeff   171    0.1043  10.8505
bond_coeff   172    0.3042  11.5246
bond_coeff   173    0.0654  18.3314
bond_coeff   174    0.0238  27.6779
bond_coeff   175    0.0931  26.1446
bond_coeff   176    0.0617  28.1518
bond_coeff   177    5.5011   6.9025
bond_coeff   178    0.6452  12.2432
bond_coeff   179    0.1451  16.6703
bond_coeff   180    0.0161  18.3486
bond_coeff   181    0.0121  20.0193
bond_coeff   182    0.0124  28.7329
bond_coeff   183    0.0057  28.4310
bond_coeff   184    0.0060  24.2607
bond_coeff   185    0.0095  20.2927
bond_coeff   186    0.0138  17.4868
bond_coeff   187    0.2900  15.5747
bond_coeff   188    0.7888   9.9113
bond_coeff   189    0.4445  10.3673
bond_coeff   190    0.0319  17.0570
bond_coeff   191    0.0191  22.7918
bond_coeff   192    0.0080  23.0206
bond_coeff   193    0.0057  20.8587
bond_coeff   194    0.0092  24.9884
bond_coeff   195    0.0062  26.3575
bond_coeff   196    0.0175  29.0127
bond_coeff   197    0.0141  22.7503
bond_coeff   198    0.0134  17.9256
bond_coeff   199    0.0167  21.6224
bond_coeff   200    0.0127  27.6663
bond_coeff   201    0.0046  27.5638
bond_coeff   202    0.0075  29.7992
bond_coeff   203    0.0073  24.6483
bond_coeff   204    0.0167  22.1336
bond_coeff   205    0.0076  25.2530
bond_coeff   206    0.0095  27.7870
bond_coeff   207    0.0517  23.6844
bond_coeff   208    0.4032  11.1966
bond_coeff   209    0.5565   9.2099
bond_coeff   210    0.2152  14.0212
bond_coeff   211    0.1731  21.0788
bond_coeff   212    0.0167  26.2453
bond_coeff   213    0.0210  29.4904
bond_coeff   214    0.5143   7.3975
bond_coeff   215    0.0092  14.4452
bond_coeff   216    0.0134  17.1541
bond_coeff   217    0.0059  19.9546
bond_coeff   218    0.0070  28.0724
bond_coeff   219    0.0052  26.2315
bond_coeff   220    0.0050  21.0636
bond_coeff   221    0.0070  15.8542
bond_coeff   222    0.3199  11.7927
bond_coeff   223    0.0199  12.0806
bond_coeff   224    0.0125  10.9594
bond_coeff   225    0.4683  13.0775
bond_coeff   226    0.0328  19.4446
bond_coeff   227    0.0616  23.6537
bond_coeff   228    0.0192  21.8038
bond_coeff   229    0.0267  18.4288
bond_coeff   230    0.3749  23.3888
bond_coeff   231    0.0037  27.2597
bond_coeff   232    0.0064  27.5797
bond_coeff   233    0.0030  21.2223
bond_coeff   234    0.0047  18.5450
bond_coeff   235    0.0190  22.9876
bond_coeff   236    0.0912  28.3776
bond_coeff   237    0.0074  27.9456
bond_coeff   238    0.0106  23.0203
bond_coeff   239    0.0124  24.2827
bond_coeff   240    0.0054  27.3923
bond_coeff   241    0.0155  18.6782
bond_coeff   242    0.1252  15.3318
bond_coeff   243    0.0764  19.1327
bond_coeff   244    0.0094  22.7521
bond_coeff   245    0.2204  18.1414
bond_coeff   246    0.2424   9.0668
bond_coeff   247    0.4551   9.8774
bond_coeff   248    0.3603  17.0906
bond_coeff   249    0.0945  23.7685
bond_coeff   250    0.0184  26.1715
bond_coeff   251    0.0040  29.9642
bond_coeff   252    0.3321   8.3390
bond_coeff   253    0.6119  11.9641
bond_coeff   254    0.0207  15.1504
bond_coeff   255    0.0296  22.8621
bond_coeff   256    0.0072  20.3140
bond_coeff   257    0.0085  15.3484
bond_coeff   258    0.2434  10.9935
bond_coeff   259    0.1172  10.0044
bond_coeff   260    0.0120  15.3114
bond_coeff   261    0.0105  15.7809
bond_coeff   262    0.0146  15.2075
bond_coeff   263    0.0089  19.0667
bond_coeff   264    0.0154  23.7649
bond_coeff   265    0.0372  19.8638
bond_coeff   266    0.2020  17.3548
bond_coeff   267    0.1369  24.9770
bond_coeff   268    0.0053  26.6014
bond_coeff   269    0.0084  23.2976
bond_coeff   270    0.0372  26.2346
bond_coeff   271    0.0010  23.5541
bond_coeff   272    0.0011  28.6049
bond_coeff   273    0.0013  22.7429
bond_coeff   274    0.0017  20.5344
bond_coeff   275    0.0015  24.8513
bond_coeff   276    0.0014  29.2079
bond_coeff   277    0.0024  19.9118
bond_coeff   278    0.0022  13.3927
bond_coeff   279    0.0032  14.4071
bond_coeff   280    0.0150  18.6748
bond_coeff   281    0.0901  17.2428
bond_coeff   282    0.1297  11.7345
bond_coeff   283    0.2275   9.4390
bond_coeff   284    0.0038  15.6084
bond_coeff   285    0.0043  21.5871
bond_coeff   286    0.0029  29.5790
bond_coeff   287    0.0046  29.9320
bond_coeff   288    0.0255  28.8696
bond_coeff   289    0.0118  23.3909
bond_coeff   290    0.0049  27.9131
bond_coeff   291    0.0094  29.6486
bond_coeff   292    6.9291   4.3496
bond_coeff   293    0.2128   7.4158
bond_coeff   294    0.0374  14.9896
bond_coeff   295    0.2261  13.2965
bond_coeff   296    0.8907  10.2772
bond_coeff   297    0.0104  10.1859
bond_coeff   298    0.0011  14.3089
bond_coeff   299    0.0020  20.2103
bond_coeff   300    0.0053  19.3956
bond_coeff   301    0.0117  15.5613
bond_coeff   302    0.0069  15.7175
bond_coeff   303    0.0257  21.4886
bond_coeff   304    0.0108  16.9295
bond_coeff   305    0.0027  16.9818
bond_coeff   306    0.0026  26.3526
bond_coeff   307    0.0050  26.6775
bond_coeff   308    0.0176  27.3381
bond_coeff   309    0.0004  20.6610
bond_coeff   310    0.0004  28.8915
bond_coeff   311    0.0004  27.7083
bond_coeff   312    0.0004  25.0993
bond_coeff   313    0.0006  25.9597
bond_coeff   314    0.0008  26.1745
bond_coeff   315    0.0006  19.3398
bond_coeff   316    0.0010  18.5423
bond_coeff   317    0.0054  22.4831
bond_coeff   318    0.0034  24.0929
bond_coeff   319    0.0070  18.4858
bond_coeff   320    0.0404  12.2355
bond_coeff   321    0.0013  12.0659
bond_coeff   322    0.0010  15.7056
bond_coeff   323    0.0011  22.8642
bond_coeff   324    0.0015  26.1280
bond_coeff   325    0.0295  23.6280
bond_coeff   326    0.0039  22.1964
bond_coeff   327    0.1369  22.2176
bond_coeff   328    0.0534  18.0493
bond_coeff   329    0.0164  26.0735
bond_coeff   330    0.0867  28.0023
bond_coeff   331    0.0018  26.8631
bond_coeff   332    0.0026  28.1695
bond_coeff   333    3.4804   4.2052
bond_coeff   334    0.9890  11.2356
bond_coeff   335    0.2079  10.6920
bond_coeff   336    0.2747   9.0505
bond_coeff   337    0.0262  11.0721
bond_coeff   338    0.0029  16.3236
bond_coeff   339    0.0109  21.4079
bond_coeff   340    0.0089  19.8737
bond_coeff   341    0.0052  14.8230
bond_coeff   342    0.0023  12.9750
bond_coeff   343    0.0220  18.8391
bond_coeff   344    0.4073  14.4795
bond_coeff   345    0.0081  15.9773
bond_coeff   346    0.0115  25.5182
bond_coeff   347    0.0101  26.6367
bond_coeff   348    0.0151  26.0976
bond_coeff   349    0.0783  28.4783
bond_coeff   350    0.0003  21.8292
bond_coeff   351    0.0003  29.7795
bond_coeff   352    0.0003  28.4157
bond_coeff   353    0.0007  29.4050
bond_coeff   354    0.0018  28.5734
bond_coeff   355    0.0010  22.4601
bond_coeff   356    0.0008  22.3530
bond_coeff   357    0.0024  26.5089
bond_coeff   358    0.0033  28.2215
bond_coeff   359    0.0068  21.9954
bond_coeff   360    0.0125  14.9370
bond_coeff   361    0.0021  11.2407
bond_coeff   362    0.0009  12.4489
bond_coeff   363    0.0010  18.7461
bond_coeff   364    0.0015  21.9272
bond_coeff   365    0.0326  20.0218
bond_coeff   366    0.0114  19.1572
bond_coeff   367    0.1578  18.2627
bond_coeff   368    0.0170  14.2901
bond_coeff   369    0.0037  22.4348
bond_coeff   370    0.0083  24.0412
bond_coeff   371    0.0828  26.9288
bond_coeff   372    0.0122  29.8438
bond_coeff   373    0.0022  25.6131
bond_coeff   374    0.0044  26.0898
bond_coeff   375    0.7177   9.8978
bond_coeff   376    0.1436  11.6258
bond_coeff   377    0.1269  12.1440
bond_coeff   378    0.0486  15.1764
bond_coeff   379    0.0032  20.4139
bond_coeff   380    0.0132  24.9791
bond_coeff   381    0.0077  22.3605
bond_coeff   382    0.0064  16.3659
bond_coeff   383    0.0031  13.1357
bond_coeff   384    0.0355  20.2417
bond_coeff   385    0.3145  16.8568
bond_coeff   386    0.0095  19.3016
bond_coeff   387    0.0152  28.5641
bond_coeff   388    0.0078  29.2204
bond_coeff   389    0.0095  28.1189
bond_coeff   390    0.0003  23.9937
bond_coeff   391    0.0010  26.3989
bond_coeff   392    0.0006  25.4142
bond_coeff   393    0.0014  28.6653
bond_coeff   394    0.0046  23.9440
bond_coeff   395    0.0066  15.9145
bond_coeff   396    0.0029   9.7663
bond_coeff   397    0.0008   9.6861
bond_coeff   398    0.0009  16.3489
bond_coeff   399    0.0017  19.7747
bond_coeff   400    0.0326  17.7028
bond_coeff   401    0.0496  18.0905
bond_coeff   402    0.2861  17.9087
bond_coeff   403    0.0911  14.8834
bond_coeff   404    0.0037  22.3898
bond_coeff   405    0.0102  23.6605
bond_coeff   406    0.0326  26.2469
bond_coeff   407    0.0024  28.7497
bond_coeff   408    0.0049  28.5369
bond_coeff   409    2.1176   6.5788
bond_coeff   410    0.3356  11.7915
bond_coeff   411    0.0654  17.9874
bond_coeff   412    0.0146  24.9680
bond_coeff   413    0.0367  29.9682
bond_coeff   414    0.0118  28.6205
bond_coeff   415    0.0075  22.6612
bond_coeff   416    0.0050  17.1309
bond_coeff   417    0.0188  20.7411
bond_coeff   418    0.3877  16.3335
bond_coeff   419    0.0266  20.7065
bond_coeff   420    0.0162  29.9115
bond_coeff   421    0.0003  23.1287
bond_coeff   422    0.0060  25.5400
bond_coeff   423    0.0120  18.6232
bond_coeff   424    0.0029  13.8927
bond_coeff   425    0.0009  13.2517
bond_coeff   426    0.0008  13.2668
bond_coeff   427    0.0328   9.3727
bond_coeff   428    0.8269   8.9825
bond_coeff   429    0.8838   9.9007
bond_coeff   430    0.0254  11.5481
bond_coeff   431    0.0060  20.0650
bond_coeff   432    0.0273  18.7766
bond_coeff   433    0.0456  19.6758
bond_coeff   434    0.0029  22.5063
bond_coeff   435    0.0022  27.3218
bond_coeff   436    0.0015  26.1857
bond_coeff   437    0.0030  26.2704
bond_coeff   438    0.0040  28.4131
bond_coeff   439    7.8107   6.5316
bond_coeff   440    0.6623  13.4137
bond_coeff   441    0.1066  20.9041
bond_coeff   442    0.0560  27.2283
bond_coeff   443    0.0069  27.7989
bond_coeff   444    0.0053  23.1883
bond_coeff   445    0.0046  19.3543
bond_coeff   446    0.0383  21.4784
bond_coeff   447    0.1422  15.0709
bond_coeff   448    0.0124  18.0963
bond_coeff   449    0.0078  27.8293
bond_coeff   450    0.0009  26.5727
bond_coeff   451    0.0002  17.3641
bond_coeff   452    0.0001  26.3798
bond_coeff   453    0.0003  26.6059
bond_coeff   454    0.0006  29.3329
bond_coeff   455    0.0153  26.4488
bond_coeff   456    0.0085  26.0976
bond_coeff   457    0.0094  25.2052
bond_coeff   458    0.0055  20.9510
bond_coeff   459    0.0024  18.3793
bond_coeff   460    0.0012  19.0700
bond_coeff   461    0.0010  18.8953
bond_coeff   462    0.0695  14.3269
bond_coeff   463    0.0111  10.2906
bond_coeff   464    1.5303  12.3970
bond_coeff   465    0.0541  13.0531
bond_coeff   466    0.0157  22.8400
bond_coeff   467    0.0403  21.8607
bond_coeff   468    0.0160  22.9584
bond_coeff   469    0.0076  23.8024
bond_coeff   470    0.0016  26.5934
bond_coeff   471    0.0012  29.3872
bond_coeff   472    0.0014  22.2751
bond_coeff   473    0.0024  24.4869
bond_coeff   474    0.0027  28.0124
bond_coeff   475    8.5538   6.9315
bond_coeff   476    0.5557  14.4708
bond_coeff   477    0.1907  21.2742
bond_coeff   478    0.0103  23.0281
bond_coeff   479    0.0094  19.7821
bond_coeff   480    0.0097  18.0270
bond_coeff   481    0.1499  19.4482
bond_coeff   482    0.3550  12.2619
bond_coeff   483    0.0116  13.2525
bond_coeff   484    0.0073  23.2506
bond_coeff   485    0.0181  28.0321
bond_coeff   486    0.0399  27.2131
bond_coeff   487    0.0164  27.9740
bond_coeff   488    0.0005  25.4778
bond_coeff   489    0.0002  16.2358
bond_coeff   490    0.0003  26.5425
bond_coeff   491    0.0003  24.8595
bond_coeff   492    0.0004  29.2839
bond_coeff   493    0.0008  25.5619
bond_coeff   494    0.0073  26.5749
bond_coeff   495    0.0723  25.9626
bond_coeff   496    0.0408  20.2295
bond_coeff   497    0.0249  21.3974
bond_coeff   498    0.0109  27.5449
bond_coeff   499    0.0507  29.3967
bond_coeff   500    0.0384  26.9672
bond_coeff   501    0.0094  21.9616
bond_coeff   502    0.0066  20.0169
bond_coeff   503    0.0034  19.5672
bond_coeff   504    0.0019  22.3125
bond_coeff   505    0.0019  23.3736
bond_coeff   506    0.0268  20.4489
bond_coeff   507    0.0114  16.7175
bond_coeff   508    0.4470  16.1570
bond_coeff   509    0.2729  13.6733
bond_coeff   510    0.0295  23.3131
bond_coeff   511    0.0167  23.7172
bond_coeff   512    0.0101  25.8789
bond_coeff   513    0.0209  26.2977
bond_coeff   514    0.0019  27.1930
bond_coeff   515    0.0019  29.2774
bond_coeff   516    0.0013  25.9299
bond_coeff   517    0.0015  18.8357
bond_coeff   518    0.0024  21.8531
bond_coeff   519    0.0029  26.7936
bond_coeff   520    8.3808   7.5712
bond_coeff   521    0.4688  15.1912
bond_coeff   522    0.0314  18.5147
bond_coeff   523    0.1013  17.3842
bond_coeff   524    0.0461  18.4567
bond_coeff   525    0.0472  19.3249
bond_coeff   526    0.5241  12.6681
bond_coeff   527    0.0260  10.3890
bond_coeff   528    0.0141  19.7486
bond_coeff   529    0.0712  27.3988
bond_coeff   530    0.0316  23.5004
bond_coeff   531    0.1797  24.3406
bond_coeff   532    0.0527  26.1375
bond_coeff   533    0.0005  26.8193
bond_coeff   534    0.0003  18.2193
bond_coeff   535    0.0004  28.6303
bond_coeff   536    0.0004  25.1874
bond_coeff   537    0.0005  29.4359
bond_coeff   538    0.0006  29.9791
bond_coeff   539    0.0011  23.0542
bond_coeff   540    0.0086  21.3388
bond_coeff   541    0.0062  25.5432
bond_coeff   542    0.0448  28.8013
bond_coeff   543    0.0296  19.2196
bond_coeff   544    0.0510  13.9083
bond_coeff   545    0.0488  17.5070
bond_coeff   546    0.0115  24.5043
bond_coeff   547    0.0290  24.2837
bond_coeff   548    0.0772  22.4404
bond_coeff   549    0.0309  19.3628
bond_coeff   550    0.0169  20.3652
bond_coeff   551    0.0086  22.1634
bond_coeff   552    0.0033  26.6472
bond_coeff   553    0.0032  28.7348
bond_coeff   554    0.0109  26.9684
bond_coeff   555    0.0117  23.6144
bond_coeff   556    0.0459  21.6390
bond_coeff   557    0.0602  17.0824
bond_coeff   558    0.0201  25.4744
bond_coeff   559    0.0106  27.2170
bond_coeff   560    0.0032  29.9090
bond_coeff   561    0.0031  27.7613
bond_coeff   562    0.0021  24.3724
bond_coeff   563    0.0026  17.9632
bond_coeff   564    0.0046  21.3631
bond_coeff   565    0.0053  27.4831
bond_coeff   566    2.5509   9.2823
bond_coeff   567    1.0502  14.9512
bond_coeff   568    0.3285  16.9559
bond_coeff   569    0.0316  20.9323
bond_coeff   570    0.0098  21.2066
bond_coeff   571    0.0228  16.2866
bond_coeff   572    0.2464  11.4804
bond_coeff   573    0.0328  17.8007
bond_coeff   574    0.0325  27.8377
bond_coeff   575    0.0620  27.6408
bond_coeff   576    0.0817  25.1346
bond_coeff   577    0.1315  21.1141
bond_coeff   578    0.1643  19.4596
bond_coeff   579    0.3526  22.5174
bond_coeff   580    0.0869  25.5231
bond_coeff   581    0.0006  23.2183
bond_coeff   582    0.0009  28.2557
bond_coeff   583    0.0035  23.2153
bond_coeff   584    0.0181  17.7393
bond_coeff   585    0.0075  19.4346
bond_coeff   586    0.0092  22.2158
bond_coeff   587    0.0122  12.3615
bond_coeff   588    0.1348   8.8194
bond_coeff   589    0.2526  16.3713
bond_coeff   590    0.0222  23.5807
bond_coeff   591    0.0167  20.3097
bond_coeff   592    0.0209  18.9685
bond_coeff   593    0.0491  18.7713
bond_coeff   594    0.0131  22.6859
bond_coeff   595    0.0270  26.2630
bond_coeff   596    0.0169  28.0639
bond_coeff   597    0.0189  22.2670
bond_coeff   598    0.0097  28.9672
bond_coeff   599    0.0060  27.7788
bond_coeff   600    0.0032  24.7660
bond_coeff   601    0.0027  19.8754
bond_coeff   602    0.0076  22.9411
bond_coeff   603    0.0076  29.6829
bond_coeff   604    4.8292   8.8790
bond_coeff   605    0.2464  14.3970
bond_coeff   606    0.0214  20.3143
bond_coeff   607    0.0079  18.9543
bond_coeff   608    0.0171  17.3753
bond_coeff   609    1.1752  11.9386
bond_coeff   610    0.0184  12.7480
bond_coeff   611    0.0209  20.6092
bond_coeff   612    0.0233  27.9905
bond_coeff   613    0.0310  18.6543
bond_coeff   614    0.0873  16.8402
bond_coeff   615    1.1925  12.3637
bond_coeff   616    1.6168  10.8299
bond_coeff   617    0.0614  15.6998
bond_coeff   618    0.0285  19.9528
bond_coeff   619    0.0274  25.5733
bond_coeff   620    0.0213  27.4437
bond_coeff   621    0.0180  26.3728
bond_coeff   622    0.0152  28.1303
bond_coeff   623    0.0041  27.6467
bond_coeff   624    0.0109  26.7796
bond_coeff   625    0.0197  24.0561
bond_coeff   626    0.0267  21.6150
bond_coeff   627    0.0099  21.6202
bond_coeff   628    0.0083  12.8819
bond_coeff   629    0.1495  15.2784
bond_coeff   630    0.0118  24.2483
bond_coeff   631    0.0089  24.9721
bond_coeff   632    0.0114  20.5038
bond_coeff   633    0.0127  21.1565
bond_coeff   634    0.0146  24.3519
bond_coeff   635    0.0341  27.8296
bond_coeff   636    0.0159  24.0783
bond_coeff   637    0.0066  27.7404
bond_coeff   638    0.0073  28.2822
bond_coeff   639    0.0060  25.1561
bond_coeff   640    0.0044  24.0726
bond_coeff   641    0.0041  21.4508
bond_coeff   642    0.0072  21.5155
bond_coeff   643    0.0082  27.7487
bond_coeff   644    6.7744   7.5298
bond_coeff   645    0.9159  14.8976
bond_coeff   646    0.4842  16.1443
bond_coeff   647    0.0750  17.5169
bond_coeff   648    0.0173  14.4251
bond_coeff   649    0.0595  15.6657
bond_coeff   650    0.0481  22.2726
bond_coeff   651    0.0183  25.8825
bond_coeff   652    0.0183  17.4863
bond_coeff   653    0.1216  20.2458
bond_coeff   654    0.1857  15.4021
bond_coeff   655    0.1096   8.4332
bond_coeff   656    0.3746  12.3981
bond_coeff   657    0.0381  18.4998
bond_coeff   658    0.0194  24.9681
bond_coeff   659    0.0245  24.3477
bond_coeff   660    0.0210  20.7212
bond_coeff   661    0.0165  25.4989
bond_coeff   662    0.0089  29.2260
bond_coeff   663    0.0127  29.1798
bond_coeff   664    0.0008  29.4468
bond_coeff   665    0.0020  28.7212
bond_coeff   666    0.0082  29.6607
bond_coeff   667    0.0454  29.2179
bond_coeff   668    0.0068  29.6172
bond_coeff   669    0.0067  21.1764
bond_coeff   670    0.0546  21.7552
bond_coeff   671    0.0065  28.3975
bond_coeff   672    0.0296  28.2976
bond_coeff   673    0.0282  19.1152
bond_coeff   674    0.0159  17.6512
bond_coeff   675    0.0278  18.8001
bond_coeff   676    0.0504  22.5287
bond_coeff   677    0.0366  29.1142
bond_coeff   678    0.1477  22.4489
bond_coeff   679    0.0286  24.2557
bond_coeff   680    0.0186  29.3231
bond_coeff   681    0.0117  28.8468
bond_coeff   682    0.0047  29.1689
bond_coeff   683    0.0032  26.3607
bond_coeff   684    0.0149  23.7149
bond_coeff   685    0.0191  28.3380
bond_coeff   686    9.0645   7.7813
bond_coeff   687    0.7901  12.6690
bond_coeff   688    0.5582  14.4574
bond_coeff   689    0.1851  14.0141
bond_coeff   690    0.0334  18.2840
bond_coeff   691    0.0427  26.1392
bond_coeff   692    0.0163  29.1933
bond_coeff   693    0.0254  22.6819
bond_coeff   694    0.2895  26.5591
bond_coeff   695    0.1747  22.6578
bond_coeff   696    0.2124  14.0208
bond_coeff   697    0.3226  14.0382
bond_coeff   698    0.0281  18.9894
bond_coeff   699    0.0129  25.0996
bond_coeff   700    0.0161  25.1630
bond_coeff   701    0.0176  22.2619
bond_coeff   702    0.0117  27.3854
bond_coeff   703    0.0046  26.3588
bond_coeff   704    0.0084  24.6888
bond_coeff   705    0.0040  29.2407
bond_coeff   706    0.0257  20.4739
bond_coeff   707    0.0360  15.5211
bond_coeff   708    0.6779  12.4894
bond_coeff   709    0.3573  15.0769
bond_coeff   710    0.0335  21.9964
bond_coeff   711    0.0452  27.2054
bond_coeff   712    0.0285  24.7782
bond_coeff   713    0.7771  17.1978
bond_coeff   714    0.0363  19.2471
bond_coeff   715    0.0323  24.0894
bond_coeff   716    0.0379  28.8526
bond_coeff   717    0.0043  26.5999
bond_coeff   718    0.0114  23.2750
bond_coeff   719    0.0219  26.8859
bond_coeff   720    6.0256   9.7864
bond_coeff   721    1.0425  12.0478
bond_coeff   722    0.9975  14.9025
bond_coeff   723    0.0435  20.5698
bond_coeff   724    0.0474  28.8924
bond_coeff   725    0.0279  27.4503
bond_coeff   726    0.0797  29.1386
bond_coeff   727    0.0727  19.6564
bond_coeff   728    0.1225  16.6725
bond_coeff   729    0.0446  19.2895
bond_coeff   730    0.0111  24.2173
bond_coeff   731    0.0181  25.6618
bond_coeff   732    0.0141  24.8933
bond_coeff   733    0.0124  28.8125
bond_coeff   734    0.0022  29.4332
bond_coeff   735    0.0059  29.1766
bond_coeff   736    0.0129  26.2404
bond_coeff   737    0.0136  19.3378
bond_coeff   738    0.1477  11.5979
bond_coeff   739    1.9985   9.1575
bond_coeff   740    0.0860  14.2943
bond_coeff   741    0.0503  19.5742
bond_coeff   742    0.0037  23.8496
bond_coeff   743    0.0070  25.6822
bond_coeff   744    0.0537  18.3401
bond_coeff   745    1.6209  11.3328
bond_coeff   746    1.3541  13.1927
bond_coeff   747    0.2412  17.4210
bond_coeff   748    0.0447  21.9401
bond_coeff   749    0.0176  26.7120
bond_coeff   750    0.0092  29.4979
bond_coeff   751    0.0043  26.0034
bond_coeff   752    0.0068  21.8698
bond_coeff   753    0.0162  24.0038
bond_coeff   754    0.0155  29.4741
bond_coeff   755    3.7110   7.8727
bond_coeff   756    0.0307  10.9602
bond_coeff   757    0.0727  13.2942
bond_coeff   758    0.0532  21.1033
bond_coeff   759    0.0209  25.8945
bond_coeff   760    0.0880  22.7299
bond_coeff   761    0.0335  26.3990
bond_coeff   762    0.0631  26.1409
bond_coeff   763    0.1858  16.7038
bond_coeff   764    0.7958  11.2069
bond_coeff   765    0.0728  10.7355
bond_coeff   766    0.0095  14.8689
bond_coeff   767    0.0107  18.7700
bond_coeff   768    0.0118  21.9963
bond_coeff   769    0.0100  22.0977
bond_coeff   770    0.0017  23.0907
bond_coeff   771    0.0037  28.4723
bond_coeff   772    0.0053  29.9881
bond_coeff   773    0.0086  26.8427
bond_coeff   774    0.0394  21.0763
bond_coeff   775    0.0411  17.8442
bond_coeff   776    0.4577  18.2141
bond_coeff   777    0.0257  21.4801
bond_coeff   778    0.0024  27.0650
bond_coeff   779    0.0347  27.7358
bond_coeff   780    0.1950  17.4582
bond_coeff   781    4.8318   9.9982
bond_coeff   782    0.4003   8.8870
bond_coeff   783    0.0186  13.7101
bond_coeff   784    0.0097  18.6657
bond_coeff   785    0.0072  21.4487
bond_coeff   786    0.0132  21.9446
bond_coeff   787    0.0124  24.5014
bond_coeff   788    0.0120  28.0489
bond_coeff   789    0.0132  22.2256
bond_coeff   790    0.0106  20.7680
bond_coeff   791    0.0060  22.2214
bond_coeff   792    0.0042  19.2203
bond_coeff   793    0.0066  12.9113
bond_coeff   794    0.0386  14.6625
bond_coeff   795    0.0331  20.4539
bond_coeff   796    0.0123  26.5823
bond_coeff   797    0.0112  26.3199
bond_coeff   798    0.0068  24.6698
bond_coeff   799    0.0194  28.6501
bond_coeff   800    0.0983   6.0565
bond_coeff   801    0.1885  13.6839
bond_coeff   802    0.0520  24.1044
bond_coeff   803    0.0289  26.8365
bond_coeff   804    0.0352  27.9626
bond_coeff   805    0.0503  27.1863
bond_coeff   806    0.0328  19.7059
bond_coeff   807    0.0504  16.5033
bond_coeff   808    0.1081  16.0527
bond_coeff   809    0.0084  19.5018
bond_coeff   810    0.0107  25.4486
bond_coeff   811    0.0103  28.8411
bond_coeff   812    0.0106  28.3768
bond_coeff   813    0.0003  27.7604
bond_coeff   814    0.0069  26.4362
bond_coeff   815    0.0086  24.7634
bond_coeff   816    0.0076  29.9795
bond_coeff   817    0.0081  25.1013
bond_coeff   818    0.1704  20.7980
bond_coeff   819    0.4279  18.3339
bond_coeff   820    0.0228  19.1668
bond_coeff   821    0.0563  21.2037
bond_coeff   822    0.0039  23.8623
bond_coeff   823    0.0220  22.6636
bond_coeff   824    0.7692  14.2874
bond_coeff   825    2.9114   7.4125
bond_coeff   826    0.2843  13.4855
bond_coeff   827    0.1026  15.7340
bond_coeff   828    0.1075  19.5345